n = 20;
m = 5;

opiniones_iniciales = [12, 4, 0, 4, 0];

valores_opiniones = [0.1, 0.25, 0.5, 0.75, 1];

costos_extras = [1, 2, 1, 1, 3];

costos_desplazamiento = [|0, 2, 4, 5, 7,
    | 1, 0, 3, 4, 6,
    | 3, 2, 0, 2, 4,
    | 4, 2, 1, 0, 2,
    | 8, 5, 3, 2, 0 |];

ct = 20;

maxMovs = 18;